Academic license - for non-commercial use only
Gurobi Optimizer version 9.0.3 build v9.0.3rc0 (mac64)
Optimize a model with 96164 rows, 90720 columns and 526770 nonzeros
Model fingerprint: 0x05371d3e
Variable types: 0 continuous, 90720 integer (90720 binary)
Coefficient statistics:
  Matrix range     [1e+00, 1e+00]
  Objective range  [1e+01, 3e+04]
  Bounds range     [1e+00, 1e+00]
  RHS range        [1e+00, 2e+02]
Presolve added 0 rows and 2470 columns
Presolve removed 30 rows and 0 columns
Presolve time: 1.45s
Presolved: 96134 rows, 93190 columns, 384210 nonzeros
Variable types: 0 continuous, 93190 integer (93190 binary)
Found heuristic solution: objective 348650.00000

Concurrent LP optimizer: dual simplex and barrier
Showing barrier log only...

Root barrier log...

Ordering time: 0.24s

Barrier statistics:
 Dense cols : 360
 AA' NZ     : 2.982e+05
 Factor NZ  : 1.555e+06 (roughly 90 MBytes of memory)
 Factor Ops : 4.160e+08 (less than 1 second per iteration)
 Threads    : 3

                  Objective                Residual
Iter       Primal          Dual         Primal    Dual     Compl     Time
   0   7.57894369e+07 -1.11529925e+08  2.10e+02 3.36e+01  9.88e+03     3s
   1   1.13481021e+06 -1.20667400e+08  4.93e+00 3.53e+03  6.45e+02     3s
   2   4.54821555e+05 -4.58614196e+07  6.27e-01 1.09e+03  1.85e+02     3s
   3   4.09839474e+05 -1.37652614e+06  3.45e-01 3.00e+02  6.91e+00     3s
   4   3.74033462e+05 -5.46195350e+04  2.07e-01 4.81e+01  1.53e+00     3s
   5   3.42504537e+05  1.59393062e+05  1.28e-01 1.40e+01  6.17e-01     3s
   6   3.29077690e+05  2.18590684e+05  1.03e-01 5.98e+00  3.57e-01     3s
   7   3.22908274e+05  2.38377690e+05  9.21e-02 3.61e+00  2.66e-01     3s
   8   3.16142275e+05  2.49162476e+05  7.99e-02 2.22e+00  2.07e-01     3s
   9   3.10559325e+05  2.53443354e+05  7.03e-02 1.67e+00  1.75e-01     4s
  10   3.01264452e+05  2.57768298e+05  5.58e-02 1.12e+00  1.32e-01     4s
  11   2.94015620e+05  2.61176448e+05  4.46e-02 7.09e-01  9.85e-02     4s
  12   2.89004361e+05  2.62980335e+05  3.63e-02 4.98e-01  7.75e-02     4s
  13   2.84191955e+05  2.64441053e+05  2.83e-02 3.35e-01  5.85e-02     4s
  14   2.80718076e+05  2.65293170e+05  2.24e-02 2.45e-01  4.55e-02     4s
  15   2.78975312e+05  2.66104954e+05  1.94e-02 1.81e-01  3.77e-02     4s
  16   2.77277537e+05  2.66483290e+05  1.65e-02 1.50e-01  3.15e-02     4s
  17   2.76060766e+05  2.66944698e+05  1.44e-02 1.06e-01  2.63e-02     4s
  18   2.74743425e+05  2.67140745e+05  1.21e-02 8.51e-02  2.19e-02     4s
  19   2.73648608e+05  2.67295899e+05  1.02e-02 7.08e-02  1.83e-02     4s
  20   2.72463784e+05  2.67439662e+05  8.06e-03 5.87e-02  1.45e-02     5s
  21   2.71420242e+05  2.67594325e+05  6.19e-03 4.52e-02  1.10e-02     5s
  22   2.70870378e+05  2.67711220e+05  5.22e-03 3.77e-02  9.03e-03     5s
  23   2.70247220e+05  2.67781262e+05  4.06e-03 3.13e-02  7.06e-03     5s
  24   2.70007553e+05  2.67844238e+05  3.57e-03 2.62e-02  6.19e-03     5s
  25   2.69699902e+05  2.67875500e+05  2.96e-03 2.30e-02  5.24e-03     5s
  26   2.69523322e+05  2.67965634e+05  2.64e-03 1.65e-02  4.42e-03     5s
  27   2.69341939e+05  2.68003329e+05  2.27e-03 1.36e-02  3.80e-03     5s
  28   2.69075740e+05  2.68037459e+05  1.74e-03 1.07e-02  2.96e-03     5s
  29   2.68894919e+05  2.68061833e+05  1.40e-03 9.06e-03  2.37e-03     5s
  30   2.68812019e+05  2.68096894e+05  1.24e-03 6.80e-03  2.02e-03     5s
  31   2.68740744e+05  2.68111160e+05  1.10e-03 5.82e-03  1.77e-03     5s
  32   2.68677410e+05  2.68133520e+05  9.79e-04 4.74e-03  1.52e-03     6s
  33   2.68597629e+05  2.68147723e+05  8.18e-04 3.73e-03  1.25e-03     6s
  34   2.68520523e+05  2.68157011e+05  6.59e-04 3.11e-03  1.01e-03     6s
  35   2.68457756e+05  2.68163828e+05  5.30e-04 2.62e-03  8.21e-04     6s
  36   2.68406780e+05  2.68168799e+05  4.20e-04 2.33e-03  6.69e-04     6s
  37   2.68378389e+05  2.68182899e+05  3.59e-04 1.49e-03  5.43e-04     6s
  38   2.68348619e+05  2.68189987e+05  2.98e-04 1.09e-03  4.38e-04     6s
  39   2.68323188e+05  2.68193460e+05  2.48e-04 8.83e-04  3.56e-04     6s
  40   2.68316931e+05  2.68194949e+05  2.34e-04 7.74e-04  3.34e-04     6s
  41   2.68305035e+05  2.68197253e+05  2.11e-04 6.35e-04  2.93e-04     6s
  42   2.68279206e+05  2.68198673e+05  1.58e-04 5.40e-04  2.19e-04     6s
  43   2.68268091e+05  2.68201001e+05  1.35e-04 3.79e-04  1.81e-04     6s
  44   2.68256108e+05  2.68202037e+05  1.08e-04 3.10e-04  1.46e-04     6s
  45   2.68248123e+05  2.68202929e+05  9.10e-05 2.54e-04  1.22e-04     7s
  46   2.68238829e+05  2.68204197e+05  6.96e-05 1.90e-04  9.35e-05     7s
  47   2.68230696e+05  2.68204893e+05  5.18e-05 1.54e-04  6.97e-05     7s
  48   2.68226752e+05  2.68205358e+05  4.32e-05 1.26e-04  5.77e-05     7s
  49   2.68224957e+05  2.68205669e+05  3.93e-05 1.11e-04  5.18e-05     7s
  50   2.68220555e+05  2.68206011e+05  2.91e-05 9.42e-05  3.94e-05     7s
  51   2.68218923e+05  2.68206257e+05  2.55e-05 8.18e-05  3.42e-05     7s
  52   2.68217241e+05  2.68206459e+05  2.17e-05 7.03e-05  2.91e-05     7s
  53   2.68216422e+05  2.68206556e+05  1.98e-05 6.50e-05  2.67e-05     7s
  54   2.68214807e+05  2.68206754e+05  1.63e-05 5.54e-05  2.17e-05     7s
  55   2.68214046e+05  2.68206966e+05  1.45e-05 4.53e-05  1.90e-05     7s
  56   2.68212102e+05  2.68207185e+05  1.01e-05 3.35e-05  1.32e-05     7s
  57   2.68211292e+05  2.68207392e+05  8.15e-06 2.42e-05  1.04e-05     8s
  58   2.68211132e+05  2.68207409e+05  7.78e-06 2.34e-05  9.93e-06     8s
  59   2.68211018e+05  2.68207422e+05  7.50e-06 2.28e-05  9.59e-06     8s
  60   2.68210702e+05  2.68207439e+05  6.72e-06 2.20e-05  8.74e-06     8s
  61   2.68210129e+05  2.68207580e+05  5.33e-06 1.51e-05  6.80e-06     8s
  62   2.68209022e+05  2.68207629e+05  2.70e-06 1.27e-05  3.81e-06     8s
  63   2.68208796e+05  2.68207664e+05  2.13e-06 1.12e-05  3.12e-06     8s
  64   2.68208689e+05  2.68207710e+05  1.88e-06 9.20e-06  2.68e-06     8s
  65   2.68208606e+05  2.68207756e+05  1.68e-06 6.82e-06  2.31e-06     8s
  66   2.68208504e+05  2.68207793e+05  1.43e-06 5.16e-06  1.92e-06     8s
  67   2.68208369e+05  2.68207854e+05  1.09e-06 2.80e-06  1.37e-06     8s
  68   2.68208285e+05  2.68207872e+05  8.86e-07 2.08e-06  1.09e-06     9s
  69   2.68208197e+05  2.68207875e+05  6.80e-07 2.00e-06  8.59e-07     9s
  70   2.68208175e+05  2.68207889e+05  6.22e-07 1.48e-06  7.49e-07     9s
  71   2.68208139e+05  2.68207904e+05  5.32e-07 8.53e-07  6.08e-07     9s
  72   2.68208030e+05  2.68207906e+05  2.58e-07 7.53e-07  3.33e-07     9s
  73   2.68208006e+05  2.68207912e+05  1.97e-07 8.78e-07  2.50e-07     9s
  74   2.68207936e+05  2.68207918e+05  2.20e-08 6.37e-07  5.39e-08     9s
  75   2.68207935e+05  2.68207918e+05  2.03e-08 6.06e-07  5.16e-08     9s
  76   2.68207935e+05  2.68207918e+05  2.03e-08 6.06e-07  5.16e-08     9s
  77   2.68207935e+05  2.68207918e+05  2.03e-08 6.06e-07  5.16e-08     9s

Barrier solved model in 77 iterations and 9.35 seconds
Optimal objective 2.68207935e+05


Root crossover log...

   22167 DPushes remaining with DInf 1.4670823e-04                 9s
       0 DPushes remaining with DInf 0.0000000e+00                10s

     680 PPushes remaining with PInf 0.0000000e+00                10s
       0 PPushes remaining with PInf 0.0000000e+00                10s

  Push phase complete: Pinf 0.0000000e+00, Dinf 4.8992802e-01     10s


Root simplex log...

Iteration    Objective       Primal Inf.    Dual Inf.      Time
    4341    2.6820793e+05   0.000000e+00   4.899280e-01     10s
    4347    2.6820793e+05   0.000000e+00   0.000000e+00     10s

Solved with barrier

Root relaxation: objective 2.682079e+05, 4347 iterations, 7.72 seconds
Total elapsed time = 10.12s

    Nodes    |    Current Node    |     Objective Bounds      |     Work
 Expl Unexpl |  Obj  Depth IntInf | Incumbent    BestBd   Gap | It/Node Time

     0     0 268207.926    0 9644 348650.000 268207.926  23.1%     -   10s
H    0     0                    277146.00000 268207.926  3.23%     -   11s
H    0     0                    276743.00000 268207.926  3.08%     -   16s
     0     0 268207.926    0 9644 276743.000 268207.926  3.08%     -   27s
H    0     2                    276742.00000 268207.926  3.08%     -   51s
     0     2 268207.926    0 9641 276742.000 268207.926  3.08%     -   51s
     1     4 268253.930    1 9146 276742.000 268208.016  3.08%  3593   80s
     3     8 268332.288    2 9119 276742.000 268254.107  3.07%  7415  133s
     7    12 268350.916    3 9438 276742.000 268332.292  3.04% 10708  143s
    11    16 269733.907    3 7911 276742.000 268350.917  3.03%  9978  172s
    15    20 268382.492    4 9482 276742.000 268350.923  3.03%  9497  184s
    19    24 269183.094    4 9615 276742.000 268382.576  3.02%  9255  213s
    23    27 268471.659    5 9091 276742.000 268382.777  3.02%  9010  225s
*   26    27               4    269994.00000 268382.777  0.60%  8370  225s
    28    26 268534.156    6 9703 269994.000 268382.777  0.60%  8212  241s
    33    28 268576.632    7 8724 269994.000 268382.777  0.60%  7448  256s
    39    32 268599.173    8 8701 269994.000 268382.777  0.60%  6800  275s
    45    35 268651.822   10 9297 269994.000 268382.777  0.60%  6558  300s

Explored 50 nodes (311410 simplex iterations) in 300.06 seconds
Thread count was 8 (of 8 available processors)

Solution count 5: 269994 276742 276743 ... 348650

Time limit reached
Best objective 2.699940000000e+05, best bound 2.683830000000e+05, gap 0.5967%

User-callback calls 110621, time in user-callback 0.61 sec
Solution written to /Users/mdeboute/Desktop/Etudes/Master/M2/S9/GOPP/Projet/multi-period-flp/solution/instMulti_I30_J250_T12_1_result.txt
